162 5
10 10 10 10 10 

0 0 0 0 0 0 1 2 
0 0 0 0 0 0 3 3 11 12 
2 0 1 0 0 0 2 7 4 
7 0 3 0 0 0 2 9 5 
8 0 2 0 0 0 2 10 6 
5 0 4 0 0 0 1 8 
8 0 3 0 0 0 1 9 
6 0 3 0 0 0 1 13 
9 0 2 0 0 0 1 13 
9 0 2 0 0 0 1 13 
8 0 1 0 0 0 1 13 
2 0 4 0 0 0 1 13 
0 0 0 0 0 0 1 14 
0 0 0 0 0 0 3 15 18 19 
9 0 0 0 0 1 1 16 
3 0 0 0 0 5 1 17 
2 0 0 0 0 1 3 22 21 20 
2 0 0 0 0 4 3 22 21 20 
3 0 0 0 0 3 2 22 20 
6 0 0 0 0 2 2 24 23 
3 0 0 0 0 3 2 24 23 
4 0 0 0 0 2 1 23 
5 0 0 0 0 3 1 25 
8 0 0 0 0 1 1 25 
0 0 0 0 0 0 1 26 
0 0 0 0 0 0 1 27 
1 0 0 0 1 0 3 31 30 28 
6 0 0 0 2 0 3 36 34 29 
3 0 0 0 6 0 2 35 32 
3 0 0 0 2 0 2 34 32 
3 0 0 0 1 0 2 34 32 
4 0 0 0 2 0 1 33 
7 0 0 0 2 0 1 37 
4 0 0 0 1 0 1 37 
3 0 0 0 3 0 1 37 
3 0 0 0 5 0 1 37 
0 0 0 0 0 0 5 38 60 82 104 126 
0 0 0 0 0 0 5 39 55 56 57 58 
4 0 0 1 0 1 4 54 53 52 40 
2 0 0 3 0 5 1 41 
4 0 0 3 0 2 1 42 
8 0 0 1 0 2 2 51 43 
9 0 0 3 0 3 3 50 49 44 
2 0 0 2 0 2 1 45 
9 0 0 3 0 1 1 46 
6 0 0 4 0 5 1 47 
8 0 0 3 0 2 1 48 
5 0 0 2 0 1 1 59 
9 0 0 1 0 3 1 59 
1 0 0 3 0 4 1 59 
10 0 0 1 0 3 1 59 
1 0 0 3 0 1 1 59 
1 0 0 1 0 2 1 59 
7 0 0 3 0 6 1 59 
9 0 0 4 0 1 1 59 
4 0 0 2 0 3 1 59 
1 0 0 2 0 2 2 59 129 
6 0 0 5 0 1 1 59 
0 0 0 0 0 0 1 162 
0 0 0 0 0 0 2 61 63 
5 0 0 1 1 0 2 66 62 
1 0 0 2 2 0 1 64 
4 0 0 4 4 0 1 64 
3 0 0 3 2 0 3 72 69 65 
6 0 0 2 4 0 3 76 70 67 
2 0 0 2 2 0 3 72 71 68 
6 0 0 2 2 0 3 79 68 148 
4 0 0 1 1 0 2 78 73 
3 0 0 7 2 0 2 79 71 
8 0 0 4 2 0 2 78 74 
7 0 0 3 5 0 3 80 78 77 
7 0 0 2 2 0 2 79 75 
3 0 0 2 2 0 1 74 
6 0 0 2 5 0 1 75 
1 0 0 3 4 0 1 77 
5 0 0 3 1 0 1 79 
7 0 0 2 1 0 1 81 
1 0 0 3 2 0 1 81 
8 0 0 1 4 0 1 81 
3 0 0 1 2 0 1 81 
0 0 0 0 0 0 1 162 
0 0 0 0 0 0 1 83 
4 1 0 0 1 0 2 102 84 
1 3 0 0 3 0 2 101 85 
8 3 0 0 2 0 3 100 99 86 
4 1 0 0 1 0 3 98 97 87 
3 4 0 0 3 0 3 96 95 88 
1 3 0 0 3 0 3 94 93 89 
3 2 0 0 2 0 1 90 
6 3 0 0 5 0 1 91 
8 4 0 0 2 0 1 92 
4 3 0 0 1 0 1 103 
10 2 0 0 1 0 1 103 
7 5 0 0 4 0 1 103 
1 3 0 0 2 0 1 103 
5 1 0 0 4 0 1 103 
4 1 0 0 4 0 1 103 
3 2 0 0 3 0 1 103 
1 3 0 0 1 0 2 103 112 
9 2 0 0 3 0 1 103 
1 3 0 0 3 0 1 103 
1 1 0 0 2 0 1 103 
0 0 0 0 0 0 1 162 
0 0 0 0 0 0 2 105 106 
9 1 0 0 1 0 2 109 108 
9 2 0 0 2 0 2 111 107 
1 2 0 0 3 0 1 109 
1 2 0 0 2 0 2 112 111 
5 4 0 0 3 0 1 110 
1 2 0 0 3 0 2 115 112 
4 2 0 0 4 0 3 115 114 113 
3 3 0 0 2 0 2 114 113 
2 7 0 0 2 0 4 121 120 118 117 
10 4 0 0 5 0 2 117 116 
8 2 0 0 1 0 2 117 116 
7 3 0 0 2 0 4 124 121 120 119 
3 2 0 0 2 0 2 124 119 
2 5 0 0 3 0 1 119 
4 1 0 0 2 0 1 122 
8 2 0 0 2 0 1 122 
2 1 0 0 2 0 1 122 
6 3 0 0 3 0 1 123 
6 1 0 0 1 0 1 125 
2 1 0 0 5 0 1 125 
0 0 0 0 0 0 1 162 
0 0 0 0 0 0 4 127 129 132 136 
9 0 0 1 0 0 2 134 128 
5 0 0 2 0 0 1 130 
2 0 0 3 0 0 2 135 134 
10 0 0 5 0 0 1 131 
3 0 0 4 0 0 1 133 
8 0 0 2 0 0 1 134 
2 0 0 2 0 0 1 137 
2 0 0 1 0 0 1 137 
1 0 0 3 0 0 1 137 
6 0 0 2 0 0 1 137 
0 0 0 0 0 0 2 138 150 
0 0 0 0 0 0 4 139 142 145 148 
9 0 0 0 0 1 1 140 
3 0 0 0 0 3 1 141 
5 0 0 0 0 2 2 147 143 
6 0 0 0 0 4 1 144 
1 0 0 0 0 5 1 146 
8 0 0 0 0 4 1 146 
4 0 0 0 0 1 1 146 
8 0 0 0 0 2 1 149 
7 0 0 0 0 2 1 149 
5 0 0 0 0 1 1 149 
0 0 0 0 0 0 1 162 
0 0 0 0 0 0 3 151 152 154 
5 1 0 0 0 0 2 155 153 
2 3 0 0 0 0 1 153 
6 4 0 0 0 0 3 160 159 156 
8 2 0 0 0 0 1 155 
6 3 0 0 0 0 2 159 157 
6 3 0 0 0 0 1 157 
9 1 0 0 0 0 1 158 
1 5 0 0 0 0 1 161 
10 1 0 0 0 0 1 161 
4 2 0 0 0 0 1 161 
0 0 0 0 0 0 1 162 
0 0 0 0 0 0 0 
